unsat
(define-fun f ((x0 (BitVec 64)) (x1 (BitVec 64))) (BitVec 64) (bvadd x0 (bvmul x1 #b0000000000000000000000000000000000000000000000000000000000001111)))
(define-fun f ((x0 (BitVec 64)) (x1 (BitVec 64))) (BitVec 64) (bvadd x0 (bvmul x1 #b0000000000000000000000000000000000000000000000000000000000001111)))
int-arith44.sl running time : 0 m 2.287982323 s
times : 2.287982323
